100 8
771 97
595 91
696 252
343 459
496 777
628 789
181 324
297 779
665 855
329 803
556 599
294 659
224 817
242 784
527 913
583 259
431 716
345 366
341 678
301 158
642 118
389 677
20 538
328 263
255 671
151 487
571 85
339 422
357 279
153 789
83 804
500 770
803 395
174 521
571 556
217 297
193 830
731 749
264 187
426 776
524 916
569 900
299 299
323 705
522 749
795 381
313 333
173 789
459 645
118 454
467 148
268 204
263 848
661 156
621 896
630 888
252 953
304 156
123 792
90 886
673 83
368 385
308 456
732 93
188 350
321 805
260 908
340 769
697 582
729 238
755 164
653 94
305 187
172 625
382 692
650 208
447 521
250 977
625 86
328 874
679 322
559 734
302 170
583 163
83 834
524 744
432 522
679 419
276 296
584 722
636 553
597 44
446 650
232 618
355 848
443 346
379 890
526 181
440 733
401 924
